networks/zoo_66_846/zoo_66_846.txt
Number of groups: 38
Flow 29: {2 1} {1 25} {25 3} 
Flow 32: {2 7} {7 40} 
Flow 39: {25 22} {22 14} {14 15} {15 48} 
Flow 59: {3 25} {25 4} {4 5} {5 38} 
Flow 67: {3 22} {22 13} {13 46} 
Flow 103: {5 21} {21 19} {19 18} {18 51} 
Flow 105: {22 20} 
Flow 117: {4 25} {25 24} {24 33} {33 66} 
Flow 134: {7 2} {2 35} 
Flow 135: {6 21} {21 5} {5 4} {4 37} 
Flow 185: {11 14} {14 47} 
Flow 199: {8 21} {21 22} {22 29} {29 62} 
Flow 222: {9 21} {21 20} {20 53} 
Flow 241: {10 21} {21 11} {11 44} 
Flow 301: {12 22} {22 30} {30 63} 
Flow 309: {13 22} {22 21} {21 8} {8 41} 
Flow 334: {17 16} {16 49} 
Flow 347: {14 22} {22 31} {31 32} {32 65} 
Flow 363: {15 14} {14 11} {11 21} {21 54} 
Flow 384: {16 17} {17 50} 
Flow 425: {18 17} {17 8} {8 7} {7 1} {1 34} 
Flow 429: {19 21} {21 6} 
Flow 484: {20 21} {21 10} {10 43} 
Flow 500: {20 22} {22 28} {28 61} 
Flow 531: {21 9} {9 26} {26 27} {27 60} 
Flow 586: {23 17} {17 18} {18 19} {19 52} 
Flow 599: {24 25} {25 1} {1 2} 
Flow 660: {9 6} {6 39} 
Flow 686: {27 28} {28 22} {22 3} {3 36} 
Flow 692: {26 9} {9 42} 
Flow 741: {28 27} {27 26} {26 59} 
Flow 757: {29 22} {22 25} {25 58} 
Flow 769: {30 22} {22 12} {12 45} 
Flow 784: {30 29} 
Flow 796: {31 22} {22 55} 
Flow 812: {32 33} {33 24} {24 57} 
Flow 838: {1 7} {7 8} {8 17} {17 23} {23 56} 
Flow 845: {33 32} {32 31} {31 64} 
Time taken running everything: 20 seconds
