networks/zoo_66_846/zoo_66_846.sol
<?xml version = "1.0" encoding="UTF-8" standalone="yes"?>
<CPLEXSolution version="1.2">
 <header
   problemName="networks/zoo_66_846/zoo_66_846.lp"
   solutionName="incumbent"
   solutionIndex="-1"
   objectiveValue="38"
   solutionTypeValue="3"
   solutionTypeString="primal"
   solutionStatusValue="101"
   solutionStatusString="integer optimal solution"
   solutionMethodString="mip"
   primalFeasible="1"
   dualFeasible="1"
   MIPNodes="1155"
   MIPIterations="94781"
   writeLevel="3"/>
 <quality
   epInt="1.0000000000000001e-05"
   epRHS="9.9999999999999995e-07"
   maxIntInfeas="1.000000082740371e-09"
   maxPrimalInfeas="5.000000413701855e-09"
   maxX="4"
   maxSlack="10"/>
 <variables>
  <variable name="Y(3,6)" index="137" value="-5.4956039718945249e-14"/>
  <variable name="Y(11,15)" index="674" value="-4.197471953423789e-11"/>
  <variable name="Y(29,25)" index="1872" value="1"/>
  <variable name="Y(31,6)" index="1985" value="-8.142701374205809e-11"/>
  <variable name="Y(32,7)" index="2052" value="1"/>
  <variable name="Y(39,15)" index="2522" value="1"/>
  <variable name="Y(59,5)" index="3832" value="1"/>
  <variable name="Y(67,13)" index="4368" value="1"/>
  <variable name="Y(91,6)" index="5945" value="8.1482080804079498e-11"/>
  <variable name="Y(94,9)" index="6146" value="1.1111112030448567e-10"/>
  <variable name="Y(103,18)" index="6749" value="1"/>
  <variable name="Y(105,22)" index="6885" value="1"/>
  <variable name="Y(117,33)" index="7688" value="1"/>
  <variable name="Y(124,14)" index="8131" value="-1.4814816040598086e-10"/>
  <variable name="Y(134,2)" index="8779" value="1"/>
  <variable name="Y(135,4)" index="8847" value="1"/>
  <variable name="Y(185,14)" index="12157" value="1"/>
  <variable name="Y(199,29)" index="13096" value="1"/>
  <variable name="Y(222,20)" index="14605" value="1"/>
  <variable name="Y(241,11)" index="15850" value="1"/>
  <variable name="Y(262,15)" index="17240" value="5.1851971360649133e-11"/>
  <variable name="Y(301,30)" index="19829" value="1"/>
  <variable name="Y(309,8)" index="20335" value="1"/>
  <variable name="Y(334,16)" index="21993" value="1"/>
  <variable name="Y(347,32)" index="22867" value="1"/>
  <variable name="Y(356,11)" index="23440" value="-1.4814816040598089e-10"/>
  <variable name="Y(359,14)" index="23641" value="1.4814816040598089e-10"/>
  <variable name="Y(363,21)" index="23912" value="1"/>
  <variable name="Y(384,17)" index="25294" value="1"/>
  <variable name="Y(425,1)" index="27984" value="1"/>
  <variable name="Y(429,21)" index="28268" value="1"/>
  <variable name="Y(433,11)" index="28522" value="1.1111112030448567e-10"/>
  <variable name="Y(437,15)" index="28790" value="-9.8772518264112444e-12"/>
  <variable name="Y(441,21)" index="29060" value="-3.33333360913457e-10"/>
  <variable name="Y(483,9)" index="31820" value="-1.1111112030448567e-10"/>
  <variable name="Y(484,10)" index="31887" value="1"/>
  <variable name="Y(494,21)" index="32558" value="3.33333360913457e-10"/>
  <variable name="Y(500,28)" index="32961" value="1"/>
  <variable name="Y(531,27)" index="35006" value="1"/>
  <variable name="Y(548,11)" index="36112" value="3.7037040101495222e-11"/>
  <variable name="Y(586,19)" index="38628" value="1"/>
  <variable name="Y(599,1)" index="39468" value="1"/>
  <variable name="Y(660,6)" index="43499" value="1"/>
  <variable name="Y(686,3)" index="45212" value="1"/>
  <variable name="Y(692,9)" index="45614" value="1"/>
  <variable name="Y(741,26)" index="48865" value="1"/>
  <variable name="Y(757,25)" index="49920" value="1"/>
  <variable name="Y(769,12)" index="50699" value="1"/>
  <variable name="Y(784,30)" index="51707" value="1"/>
  <variable name="Y(796,22)" index="52491" value="1"/>
  <variable name="Y(812,24)" index="53549" value="1"/>
  <variable name="Y(838,23)" index="55264" value="1"/>
  <variable name="Y(845,31)" index="55734" value="1"/>
  <variable name="X(1,2,599)" index="56434" value="1"/>
  <variable name="X(1,7,838)" index="57519" value="1"/>
  <variable name="X(1,25,29)" index="57556" value="1"/>
  <variable name="X(1,34,425)" index="58798" value="1"/>
  <variable name="X(2,1,29)" index="59248" value="1"/>
  <variable name="X(2,7,32)" index="60097" value="1"/>
  <variable name="X(2,35,134)" index="61045" value="1"/>
  <variable name="X(3,22,67)" index="61824" value="1"/>
  <variable name="X(3,25,59)" index="62662" value="1"/>
  <variable name="X(3,36,686)" index="64135" value="1"/>
  <variable name="X(4,5,59)" index="64354" value="1"/>
  <variable name="X(4,25,117)" index="65258" value="1"/>
  <variable name="X(4,37,135)" index="66122" value="1"/>
  <variable name="X(5,4,135)" index="66968" value="1"/>
  <variable name="X(5,21,91)" index="67770" value="2.4444624241223849e-10"/>
  <variable name="X(5,21,94)" index="67773" value="1.1111112030448567e-10"/>
  <variable name="X(5,21,103)" index="67782" value="1"/>
  <variable name="X(5,21,124)" index="67803" value="-3.5555736271672411e-10"/>
  <variable name="X(5,38,59)" index="68584" value="1"/>
  <variable name="X(6,21,135)" index="69506" value="1"/>
  <variable name="X(6,39,3)" index="70220" value="-5.4956039718945249e-14"/>
  <variable name="X(6,39,31)" index="70248" value="-8.142701374205809e-11"/>
  <variable name="X(6,39,91)" index="70308" value="8.1482080804079498e-11"/>
  <variable name="X(6,39,660)" index="70877" value="1"/>
  <variable name="X(7,1,425)" index="71488" value="1"/>
  <variable name="X(7,2,134)" index="72043" value="1"/>
  <variable name="X(7,8,838)" index="73593" value="1"/>
  <variable name="X(7,40,32)" index="73633" value="1"/>
  <variable name="X(8,7,425)" index="74872" value="1"/>
  <variable name="X(8,17,838)" index="76131" value="1"/>
  <variable name="X(8,21,199)" index="76338" value="1"/>
  <variable name="X(8,41,309)" index="77294" value="1"/>
  <variable name="X(9,6,660)" index="78491" value="1"/>
  <variable name="X(9,21,222)" index="78899" value="1"/>
  <variable name="X(9,26,531)" index="80054" value="1"/>
  <variable name="X(9,42,94)" index="80463" value="1.1111112030448567e-10"/>
  <variable name="X(9,42,483)" index="80852" value="-1.1111112030448567e-10"/>
  <variable name="X(9,42,692)" index="81061" value="1"/>
  <variable name="X(10,21,241)" index="81456" value="1"/>
  <variable name="X(10,43,484)" index="82545" value="1"/>
  <variable name="X(11,14,124)" index="83031" value="-1.4814816040598086e-10"/>
  <variable name="X(11,14,185)" index="83092" value="1"/>
  <variable name="X(11,14,262)" index="83169" value="1.555559140819474e-10"/>
  <variable name="X(11,14,437)" index="83344" value="-7.4077536759665346e-12"/>
  <variable name="X(11,21,363)" index="84116" value="1"/>
  <variable name="X(11,44,241)" index="84840" value="1"/>
  <variable name="X(11,44,356)" index="84955" value="-1.4814816040598089e-10"/>
  <variable name="X(11,44,433)" index="85032" value="1.1111112030448567e-10"/>
  <variable name="X(11,44,548)" index="85147" value="3.7037040101495222e-11"/>
  <variable name="X(12,22,301)" index="85746" value="1"/>
  <variable name="X(12,45,769)" index="87060" value="1"/>
  <variable name="X(13,22,309)" index="87446" value="1"/>
  <variable name="X(13,46,67)" index="88050" value="1"/>
  <variable name="X(14,11,356)" index="89185" value="-1.4814816040598089e-10"/>
  <variable name="X(14,11,363)" index="89192" value="1"/>
  <variable name="X(14,11,548)" index="89377" value="1.4814816040598089e-10"/>
  <variable name="X(14,15,11)" index="89686" value="-4.197471953423789e-11"/>
  <variable name="X(14,15,39)" index="89714" value="1"/>
  <variable name="X(14,15,262)" index="89937" value="5.1851971360649133e-11"/>
  <variable name="X(14,15,437)" index="90112" value="-9.8772518264112444e-12"/>
  <variable name="X(14,22,347)" index="90868" value="1"/>
  <variable name="X(14,47,124)" index="91491" value="-1.4814816040598086e-10"/>
  <variable name="X(14,47,185)" index="91552" value="1"/>
  <variable name="X(14,47,359)" index="91726" value="1.4814816040598089e-10"/>
  <variable name="X(15,14,356)" index="92569" value="-1.4814816040598089e-10"/>
  <variable name="X(15,14,359)" index="92572" value="1.4814816040598089e-10"/>
  <variable name="X(15,14,363)" index="92576" value="1"/>
  <variable name="X(15,48,11)" index="93070" value="-4.197471953423789e-11"/>
  <variable name="X(15,48,39)" index="93098" value="1"/>
  <variable name="X(15,48,262)" index="93321" value="5.1851971360649133e-11"/>
  <variable name="X(15,48,437)" index="93496" value="-9.8772518264112444e-12"/>
  <variable name="X(16,17,384)" index="94289" value="1"/>
  <variable name="X(16,49,334)" index="95085" value="1"/>
  <variable name="X(17,8,425)" index="96022" value="1"/>
  <variable name="X(17,16,334)" index="96777" value="1"/>
  <variable name="X(17,18,586)" index="97875" value="1"/>
  <variable name="X(17,23,838)" index="98973" value="1"/>
  <variable name="X(17,50,384)" index="99365" value="1"/>
  <variable name="X(18,17,425)" index="100252" value="1"/>
  <variable name="X(18,19,429)" index="101102" value="1.000000082740371e-09"/>
  <variable name="X(18,19,441)" index="101114" value="-1.000000082740371e-09"/>
  <variable name="X(18,19,586)" index="101259" value="1"/>
  <variable name="X(18,51,103)" index="101622" value="1"/>
  <variable name="X(19,18,103)" index="102468" value="1"/>
  <variable name="X(19,21,429)" index="103640" value="1"/>
  <variable name="X(19,21,433)" index="103644" value="3.33333360913457e-10"/>
  <variable name="X(19,21,441)" index="103652" value="-3.33333360913457e-10"/>
  <variable name="X(19,52,586)" index="104643" value="1"/>
  <variable name="X(20,21,483)" index="105386" value="-3.33333360913457e-10"/>
  <variable name="X(20,21,484)" index="105387" value="1"/>
  <variable name="X(20,21,494)" index="105397" value="3.33333360913457e-10"/>
  <variable name="X(20,22,500)" index="106249" value="1"/>
  <variable name="X(20,53,222)" index="106817" value="1"/>
  <variable name="X(21,5,135)" index="107576" value="1"/>
  <variable name="X(21,6,31)" index="108318" value="-8.142701374205809e-11"/>
  <variable name="X(21,6,91)" index="108378" value="8.1482080804079498e-11"/>
  <variable name="X(21,6,429)" index="108716" value="1"/>
  <variable name="X(21,8,309)" index="109442" value="1"/>
  <variable name="X(21,9,94)" index="110073" value="1.1111112030448567e-10"/>
  <variable name="X(21,9,483)" index="110462" value="-1.1111112030448567e-10"/>
  <variable name="X(21,9,531)" index="110510" value="1"/>
  <variable name="X(21,10,484)" index="111309" value="1"/>
  <variable name="X(21,11,124)" index="111795" value="-8.8887118501218466e-11"/>
  <variable name="X(21,11,241)" index="111912" value="1"/>
  <variable name="X(21,11,433)" index="112104" value="1.1111112030448567e-10"/>
  <variable name="X(21,11,437)" index="112108" value="-2.22240018032672e-11"/>
  <variable name="X(21,19,103)" index="112620" value="1"/>
  <variable name="X(21,20,222)" index="113585" value="1"/>
  <variable name="X(21,22,199)" index="114408" value="1"/>
  <variable name="X(21,54,363)" index="115418" value="1"/>
  <variable name="X(21,54,441)" index="115496" value="-3.33333360913457e-10"/>
  <variable name="X(21,54,494)" index="115549" value="3.33333360913457e-10"/>
  <variable name="X(22,3,686)" index="116587" value="1"/>
  <variable name="X(22,12,769)" index="117516" value="1"/>
  <variable name="X(22,13,67)" index="117660" value="1"/>
  <variable name="X(22,14,39)" index="118478" value="1"/>
  <variable name="X(22,20,105)" index="119390" value="1"/>
  <variable name="X(22,21,309)" index="120440" value="1"/>
  <variable name="X(22,25,757)" index="121734" value="1"/>
  <variable name="X(22,28,500)" index="122323" value="1"/>
  <variable name="X(22,29,199)" index="122868" value="1"/>
  <variable name="X(22,30,301)" index="123816" value="1"/>
  <variable name="X(22,31,347)" index="124708" value="1"/>
  <variable name="X(22,55,796)" index="126003" value="1"/>
  <variable name="X(23,17,586)" index="126639" value="1"/>
  <variable name="X(23,56,838)" index="127737" value="1"/>
  <variable name="X(24,25,599)" index="128344" value="1"/>
  <variable name="X(24,33,117)" index="128708" value="1"/>
  <variable name="X(24,57,812)" index="130249" value="1"/>
  <variable name="X(25,1,599)" index="130882" value="1"/>
  <variable name="X(25,3,29)" index="131158" value="1"/>
  <variable name="X(25,4,59)" index="132034" value="1"/>
  <variable name="X(25,22,39)" index="132860" value="1"/>
  <variable name="X(25,24,117)" index="133784" value="1"/>
  <variable name="X(25,58,757)" index="135270" value="1"/>
  <variable name="X(26,9,692)" index="136051" value="1"/>
  <variable name="X(26,27,531)" index="136736" value="1"/>
  <variable name="X(26,59,741)" index="137792" value="1"/>
  <variable name="X(27,26,741)" index="138638" value="1"/>
  <variable name="X(27,28,686)" index="139429" value="1"/>
  <variable name="X(27,60,531)" index="140120" value="1"/>
  <variable name="X(28,22,686)" index="141121" value="1"/>
  <variable name="X(28,27,741)" index="142022" value="1"/>
  <variable name="X(28,61,500)" index="142627" value="1"/>
  <variable name="X(29,22,757)" index="143730" value="1"/>
  <variable name="X(29,62,199)" index="144018" value="1"/>
  <variable name="X(30,22,769)" index="145434" value="1"/>
  <variable name="X(30,29,784)" index="146295" value="1"/>
  <variable name="X(30,63,301)" index="146658" value="1"/>
  <variable name="X(31,22,796)" index="147999" value="1"/>
  <variable name="X(31,32,347)" index="148396" value="1"/>
  <variable name="X(31,64,845)" index="149740" value="1"/>
  <variable name="X(32,31,845)" index="150586" value="1"/>
  <variable name="X(32,33,812)" index="151399" value="1"/>
  <variable name="X(32,65,347)" index="151780" value="1"/>
  <variable name="X(33,24,812)" index="153091" value="1"/>
  <variable name="X(33,32,845)" index="153970" value="1"/>
  <variable name="X(33,66,117)" index="154088" value="1"/>
  <variable name="C(11,15)" index="154859" value="-4.197471953423789e-11"/>
  <variable name="C(29,1)" index="154930" value="1"/>
  <variable name="C(29,25)" index="154931" value="2"/>
  <variable name="C(31,6)" index="154941" value="-8.142701374205809e-11"/>
  <variable name="C(32,2)" index="154942" value="3"/>
  <variable name="C(32,7)" index="154943" value="4"/>
  <variable name="C(39,22)" index="154975" value="1"/>
  <variable name="C(39,14)" index="154976" value="2"/>
  <variable name="C(39,15)" index="154977" value="3"/>
  <variable name="C(59,25)" index="155065" value="1"/>
  <variable name="C(59,4)" index="155066" value="2"/>
  <variable name="C(59,5)" index="155067" value="3"/>
  <variable name="C(67,22)" index="155096" value="1"/>
  <variable name="C(67,13)" index="155097" value="2"/>
  <variable name="C(91,21)" index="155183" value="2.4444624241223849e-10"/>
  <variable name="C(91,6)" index="155184" value="3.2592832321631799e-10"/>
  <variable name="C(94,21)" index="155195" value="1.1111112030448567e-10"/>
  <variable name="C(94,9)" index="155196" value="2.2222224060897133e-10"/>
  <variable name="C(103,21)" index="155235" value="1"/>
  <variable name="C(103,19)" index="155236" value="2"/>
  <variable name="C(103,18)" index="155237" value="3.0000000030000002"/>
  <variable name="C(117,25)" index="155290" value="1"/>
  <variable name="C(117,24)" index="155291" value="2"/>
  <variable name="C(117,33)" index="155292" value="3"/>
  <variable name="C(124,21)" index="155314" value="-3.5555736271672411e-10"/>
  <variable name="C(124,11)" index="155315" value="-4.4444448121794256e-10"/>
  <variable name="C(124,14)" index="155316" value="-5.9259264162392345e-10"/>
  <variable name="C(134,2)" index="155354" value="0.99999999999999978"/>
  <variable name="C(135,21)" index="155356" value="1"/>
  <variable name="C(135,5)" index="155357" value="2"/>
  <variable name="C(135,4)" index="155358" value="3"/>
  <variable name="C(185,14)" index="155551" value="1"/>
  <variable name="C(199,8)" index="155596" value="1"/>
  <variable name="C(199,21)" index="155597" value="2"/>
  <variable name="C(199,22)" index="155598" value="3"/>
  <variable name="C(199,29)" index="155599" value="4"/>
  <variable name="C(222,21)" index="155689" value="1"/>
  <variable name="C(222,20)" index="155690" value="2"/>
  <variable name="C(241,21)" index="155763" value="1"/>
  <variable name="C(241,11)" index="155764" value="2"/>
  <variable name="C(262,14)" index="155842" value="1.555559140819474e-10"/>
  <variable name="C(262,15)" index="155843" value="2.0740788544259653e-10"/>
  <variable name="C(301,22)" index="155999" value="1"/>
  <variable name="C(301,30)" index="156000" value="2"/>
  <variable name="C(309,22)" index="156031" value="1"/>
  <variable name="C(309,21)" index="156032" value="2"/>
  <variable name="C(309,8)" index="156033" value="3"/>
  <variable name="C(334,16)" index="156128" value="1"/>
  <variable name="C(347,22)" index="156174" value="1"/>
  <variable name="C(347,31)" index="156175" value="2"/>
  <variable name="C(347,32)" index="156176" value="3"/>
  <variable name="C(356,14)" index="156220" value="-1.4814816040598089e-10"/>
  <variable name="C(356,11)" index="156221" value="-2.9629632081196178e-10"/>
  <variable name="C(359,14)" index="156231" value="1.4814816040598089e-10"/>
  <variable name="C(363,14)" index="156251" value="1"/>
  <variable name="C(363,11)" index="156252" value="2"/>
  <variable name="C(363,21)" index="156253" value="3"/>
  <variable name="C(384,17)" index="156353" value="1"/>
  <variable name="C(425,17)" index="156540" value="1"/>
  <variable name="C(425,8)" index="156541" value="2"/>
  <variable name="C(425,7)" index="156542" value="2.9999999999999991"/>
  <variable name="C(425,1)" index="156543" value="3.9999999999999987"/>
  <variable name="C(429,19)" index="156560" value="1.000000082740371e-09"/>
  <variable name="C(429,21)" index="156561" value="1.0000000010000001"/>
  <variable name="C(433,21)" index="156576" value="3.33333360913457e-10"/>
  <variable name="C(433,11)" index="156577" value="4.4444448121794267e-10"/>
  <variable name="C(437,11)" index="156596" value="-2.22240018032672e-11"/>
  <variable name="C(437,14)" index="156597" value="-2.9631755479233735e-11"/>
  <variable name="C(437,15)" index="156598" value="-3.9509007305644978e-11"/>
  <variable name="C(441,19)" index="156607" value="-1.000000082740371e-09"/>
  <variable name="C(441,21)" index="156608" value="-1.333333443653828e-09"/>
  <variable name="C(483,21)" index="156781" value="-3.33333360913457e-10"/>
  <variable name="C(483,9)" index="156782" value="-4.4444448121794267e-10"/>
  <variable name="C(484,21)" index="156784" value="1"/>
  <variable name="C(484,10)" index="156785" value="2"/>
  <variable name="C(494,21)" index="156819" value="3.33333360913457e-10"/>
  <variable name="C(500,22)" index="156839" value="1"/>
  <variable name="C(500,28)" index="156840" value="2"/>
  <variable name="C(531,9)" index="156932" value="1"/>
  <variable name="C(531,26)" index="156933" value="2"/>
  <variable name="C(531,27)" index="156934" value="3"/>
  <variable name="C(548,11)" index="156989" value="1.4814816040598089e-10"/>
  <variable name="C(586,17)" index="157129" value="1"/>
  <variable name="C(586,18)" index="157130" value="2"/>
  <variable name="C(586,19)" index="157131" value="3"/>
  <variable name="C(599,25)" index="157203" value="1"/>
  <variable name="C(599,1)" index="157204" value="2"/>
  <variable name="C(660,6)" index="157448" value="1"/>
  <variable name="C(686,28)" index="157572" value="1"/>
  <variable name="C(686,22)" index="157573" value="2"/>
  <variable name="C(686,3)" index="157574" value="3"/>
  <variable name="C(692,9)" index="157602" value="1"/>
  <variable name="C(741,27)" index="157808" value="1"/>
  <variable name="C(741,26)" index="157809" value="2"/>
  <variable name="C(757,22)" index="157867" value="1"/>
  <variable name="C(757,25)" index="157868" value="2"/>
  <variable name="C(769,22)" index="157917" value="1"/>
  <variable name="C(769,12)" index="157918" value="2"/>
  <variable name="C(796,22)" index="158022" value="1"/>
  <variable name="C(812,33)" index="158092" value="1"/>
  <variable name="C(812,24)" index="158093" value="2"/>
  <variable name="C(838,7)" index="158230" value="1"/>
  <variable name="C(838,8)" index="158231" value="2"/>
  <variable name="C(838,17)" index="158232" value="3"/>
  <variable name="C(838,23)" index="158233" value="4"/>
  <variable name="C(845,33)" index="158261" value="2"/>
  <variable name="C(845,32)" index="158262" value="3"/>
  <variable name="C(845,31)" index="158263" value="4"/>
 </variables>
</CPLEXSolution>
